n_res = 4;
rc = [ 21, 14, 13, 20 ];
n_tasks = 15;
d = [ 5, 1, 7, 6, 200, 150, 250, 50, 175, 150, 50, 3, 8, 4, 1 ];
rr = [| 0, 0, 0, 0, 0, 0, 0, 0, 8, 9, 0, 0, 0, 0, 0
      | 0, 0, 0, 0, 0, 7, 0, 0, 0, 0, 0, 0, 0, 5, 0
      | 9, 0, 0, 0, 0, 0, 0, 0, 0, 0, 6, 0, 2, 0, 0
      | 0, 4, 7, 10, 1, 0, 10, 8, 0, 0, 0, 5, 0, 0, 10 |];
suc = [ { 4, 9 },
       { 15 },
       { 5, 7, 8 },
       { 5, 6, 8 },
       { 11, 14 },
       { 12 },
       { 9, 10, 15 },
       { 11 },
       { 14 },
       { 13 },
       {  },
       {  },
       { 14 },
       {  },
       {  } ];
